db/data/19232145271395217699911011741659415426.z3.out
sat
-------------------
4.676783038
